min: c;

c = 3.50854385567416 * u4_t1_h1 + 3.66093676629422 * u4_t1_h2 + 3.73657873279791 * u4_t1_h3 + 3.22313811146948 * u4_t1_h4 + 3.22313811146948 * u4_t10_h4 + 3.15095385321153 * u4_t1_h5 + 3.15095385321153 * u4_t10_h5 + 4.09587938346006 * u4_t1_h6 + 4.09587938346006 * u4_t10_h6 + 4.37609117430371 * u4_t1_h7 + 4.37609117430371 * u4_t10_h7 + 4.95914953990726 * u4_t1_h8 + 4.95914953990726 * u4_t9_h8 + 4.95914953990726 * u4_t10_h8 + 4.58348917898439 * u4_t9_h9 + 4.58348917898439 * u4_t10_h9 + 5.79346166764669 * u4_t9_h10 + 5.79346166764669 * u4_t10_h10 + 3.69434948859594 * u4_t2_h11 + 3.69434948859594 * u4_t4_h11 + 3.69434948859594 * u4_t9_h11 + 3.69434948859594 * u4_t10_h11 + 6.14565914943632 * u4_t2_h12 + 6.14565914943632 * u4_t3_h12 + 6.14565914943632 * u4_t4_h12 + 6.14565914943632 * u4_t8_h12 + 6.14565914943632 * u4_t9_h12 + 6.14565914943632 * u4_t10_h12 + 4.49925183728938 * u4_t2_h13 + 4.49925183728938 * u4_t3_h13 + 4.49925183728938 * u4_t4_h13 + 4.49925183728938 * u4_t8_h13 + 4.49925183728938 * u4_t9_h13 + 5.09729702322129 * u4_t2_h14 + 5.09729702322129 * u4_t3_h14 + 5.09729702322129 * u4_t4_h14 + 5.09729702322129 * u4_t8_h14 + 5.09729702322129 * u4_t9_h14 + 6.3499732614184 * u4_t2_h15 + 6.3499732614184 * u4_t3_h15 + 6.3499732614184 * u4_t4_h15 + 6.3499732614184 * u4_t8_h15 + 6.3499732614184 * u4_t9_h15 + 5.6820029228977 * u4_t2_h16 + 5.6820029228977 * u4_t3_h16 + 5.6820029228977 * u4_t4_h16 + 5.6820029228977 * u4_t5_h16 + 5.6820029228977 * u4_t8_h16 + 5.6820029228977 * u4_t9_h16 + 5.92594576570882 * u4_t2_h17 + 5.92594576570882 * u4_t3_h17 + 5.92594576570882 * u4_t5_h17 + 5.92594576570882 * u4_t8_h17 + 5.92594576570882 * u4_t9_h17 + 6.35569015297611 * u4_t2_h18 + 6.35569015297611 * u4_t3_h18 + 6.35569015297611 * u4_t5_h18 + 6.35569015297611 * u4_t8_h18 + 6.35569015297611 * u4_t9_h18 + 5.47307725077287 * u4_t2_h19 + 5.47307725077287 * u4_t3_h19 + 5.47307725077287 * u4_t6_h19 + 5.47307725077287 * u4_t8_h19 + 5.47307725077287 * u4_t9_h19 + 5.52474535299687 * u4_t2_h20 + 5.52474535299687 * u4_t6_h20 + 5.52474535299687 * u4_t9_h20 + 5.63233579101071 * u4_t6_h21 + 5.16627735041401 * u4_t6_h22 + 5.16627735041401 * u4_t7_h22 + 5.72798505019054 * u4_t6_h23 + 5.72798505019054 * u4_t7_h23;
0 <= u4_t1_h1 <= 1;
0 <= u4_t1_h2 <= 1;
0 <= u4_t1_h3 <= 1;
0 <= u4_t1_h4 <= 1;
0 <= u4_t1_h5 <= 1;
0 <= u4_t1_h6 <= 1;
0 <= u4_t1_h7 <= 1;
0 <= u4_t1_h8 <= 1;
u4_t1_h1 + u4_t1_h2 + u4_t1_h3 + u4_t1_h4 + u4_t1_h5 + u4_t1_h6 + u4_t1_h7 + u4_t1_h8 = 1;
0 <= u4_t2_h11 <= 1;
0 <= u4_t2_h12 <= 1;
0 <= u4_t2_h13 <= 1;
0 <= u4_t2_h14 <= 1;
0 <= u4_t2_h15 <= 1;
0 <= u4_t2_h16 <= 1;
0 <= u4_t2_h17 <= 1;
0 <= u4_t2_h18 <= 1;
0 <= u4_t2_h19 <= 1;
0 <= u4_t2_h20 <= 1;
u4_t2_h11 + u4_t2_h12 + u4_t2_h13 + u4_t2_h14 + u4_t2_h15 + u4_t2_h16 + u4_t2_h17 + u4_t2_h18 + u4_t2_h19 + u4_t2_h20 = 2;
0 <= u4_t3_h12 <= 1;
0 <= u4_t3_h13 <= 1;
0 <= u4_t3_h14 <= 1;
0 <= u4_t3_h15 <= 1;
0 <= u4_t3_h16 <= 1;
0 <= u4_t3_h17 <= 1;
0 <= u4_t3_h18 <= 1;
0 <= u4_t3_h19 <= 1;
u4_t3_h12 + u4_t3_h13 + u4_t3_h14 + u4_t3_h15 + u4_t3_h16 + u4_t3_h17 + u4_t3_h18 + u4_t3_h19 = 3;
0 <= u4_t4_h11 <= 1;
0 <= u4_t4_h12 <= 1;
0 <= u4_t4_h13 <= 1;
0 <= u4_t4_h14 <= 1;
0 <= u4_t4_h15 <= 1;
0 <= u4_t4_h16 <= 1;
u4_t4_h11 + u4_t4_h12 + u4_t4_h13 + u4_t4_h14 + u4_t4_h15 + u4_t4_h16 = 3;
0 <= u4_t5_h16 <= 1;
0 <= u4_t5_h17 <= 1;
0 <= u4_t5_h18 <= 1;
u4_t5_h16 + u4_t5_h17 + u4_t5_h18 = 1;
0 <= u4_t6_h19 <= 1;
0 <= u4_t6_h20 <= 1;
0 <= u4_t6_h21 <= 1;
0 <= u4_t6_h22 <= 1;
0 <= u4_t6_h23 <= 1;
u4_t6_h19 + u4_t6_h20 + u4_t6_h21 + u4_t6_h22 + u4_t6_h23 = 3;
0 <= u4_t7_h22 <= 1;
0 <= u4_t7_h23 <= 1;
u4_t7_h22 + u4_t7_h23 = 1;
0 <= u4_t8_h12 <= 1;
0 <= u4_t8_h13 <= 1;
0 <= u4_t8_h14 <= 1;
0 <= u4_t8_h15 <= 1;
0 <= u4_t8_h16 <= 1;
0 <= u4_t8_h17 <= 1;
0 <= u4_t8_h18 <= 1;
0 <= u4_t8_h19 <= 1;
u4_t8_h12 + u4_t8_h13 + u4_t8_h14 + u4_t8_h15 + u4_t8_h16 + u4_t8_h17 + u4_t8_h18 + u4_t8_h19 = 2;
0 <= u4_t9_h8 <= 1;
0 <= u4_t9_h9 <= 1;
0 <= u4_t9_h10 <= 1;
0 <= u4_t9_h11 <= 1;
0 <= u4_t9_h12 <= 1;
0 <= u4_t9_h13 <= 1;
0 <= u4_t9_h14 <= 1;
0 <= u4_t9_h15 <= 1;
0 <= u4_t9_h16 <= 1;
0 <= u4_t9_h17 <= 1;
0 <= u4_t9_h18 <= 1;
0 <= u4_t9_h19 <= 1;
0 <= u4_t9_h20 <= 1;
u4_t9_h8 + u4_t9_h9 + u4_t9_h10 + u4_t9_h11 + u4_t9_h12 + u4_t9_h13 + u4_t9_h14 + u4_t9_h15 + u4_t9_h16 + u4_t9_h17 + u4_t9_h18 + u4_t9_h19 + u4_t9_h20 = 2;
0 <= u4_t10_h4 <= 1;
0 <= u4_t10_h5 <= 1;
0 <= u4_t10_h6 <= 1;
0 <= u4_t10_h7 <= 1;
0 <= u4_t10_h8 <= 1;
0 <= u4_t10_h9 <= 1;
0 <= u4_t10_h10 <= 1;
0 <= u4_t10_h11 <= 1;
0 <= u4_t10_h12 <= 1;
u4_t10_h4 + u4_t10_h5 + u4_t10_h6 + u4_t10_h7 + u4_t10_h8 + u4_t10_h9 + u4_t10_h10 + u4_t10_h11 + u4_t10_h12 = 2;
